Traveling Salesman Problem/TSP_generados/Aleatorio1621103338_10.tsp
NAME: Aleatorio1621103338_10.tsp
COMMENT: Randomly generated scenario
TYPE: TSP
DIMENSION: 10
EDGE_WEIGHT_TYPE: ATT
NODE_COORD_SECTION
1 24.05 36.69
2 35.62 6.19
3 11.95 42.15
4 25.77 21.29
5 38.98 21.89
6 28.64 48.76
7 39.27 41.25
8 17.99 45.55
9 5.31 38.05
10 24.09 38.12
