Traveling Salesman Problem/TSP_generados/Aleatorio1621103338_10.opt.tour
NAME: Aleatorio1621103338_10.opt.tour
COMMENT: Optimal solution for Aleatorio1621103338_10 (128.02632043904148)
TYPE: TOUR
DIMENSION: 10
TOUR_SECTION
1 4 2 5 7 6 8 3 9 10
-1
EOF
